<number of tasks>
50

<cycle time>
1000

<order strength>
0.595


<task times>
1 192
2 250
3 265
4 238
5 126
6 67
7 284
8 526
9 78
10 324
11 28
12 68
13 357
14 472
15 313
16 133
17 89
18 241
19 439
20 166
21 35
22 178
23 211
24 218
25 144
26 508
27 263
28 111
29 24
30 95
31 232
32 104
33 39
34 67
35 368
36 119
37 160
38 175
39 134
40 368
41 86
42 93
43 213
44 345
45 462
46 69
47 213
48 143
49 510
50 543

<precedence relations>
1,3
2,4
2,5
2,6
2,7
3,9
4,8
5,10
5,11
5,18
6,10
6,12
7,9
7,11
7,12
8,13
9,13
10,17
11,29
12,14
13,15
13,16
13,17
13,18
14,18
15,20
16,21
17,19
17,22
17,23
17,24
18,23
18,29
18,30
19,26
20,29
21,29
22,28
23,25
23,40
24,27
24,29
24,30
25,31
26,34
27,32
28,33
29,34
29,35
30,35
30,37
31,36
32,37
33,37
34,40
34,41
35,38
35,39
35,41
36,43
37,42
37,44
37,45
38,45
39,44
39,46
40,45
40,46
41,44
41,45
41,46
42,47
43,48
45,49
45,50

<end>
